c Sudoku solution
p cnf 729 0
118 0
145 0
214 0
225 0
263 0
291 0
354 0
433 0
446 0
451 0
487 0
499 0
562 0
575 0
628 0
647 0
676 0
681 0
716 0
721 0
744 0
789 0
823 0
313 0
511 0
852 0
939 0
619 0
966 0
898 0
886 0
738 0
288 0
478 0
692 0
653 0
943 0
958 0
971 0
755 0
767 0
559 0
548 0
368 0
793 0
772 0
173 0
874 0
985 0
997 0
924 0
912 0
415 0
422 0
634 0
464 0
665 0
817 0
835 0
583 0
594 0
184 0
382 0
395 0
196 0
132 0
331 0
161 0
157 0
256 0
129 0
242 0
349 0
237 0
326 0
279 0
377 0
527 0
536 0
841 0
869 0
